
Gurobi 9.0.2 (win64) logging started Sat Oct 10 15:35:20 2020

Changed value of parameter logfile to result\v6.2-20201010T1221\scenario_2030_eff075_cab2000.log
   Prev:   Default: 
Gurobi Optimizer version 9.0.2 build v9.0.2rc0 (win64)
Optimize a model with 1384150 rows, 884815 columns and 3912197 nonzeros
Model fingerprint: 0x83ffcd5c
Coefficient statistics:
  Matrix range     [1e-07, 3e+05]
  Objective range  [1e+00, 1e+00]
  Bounds range     [0e+00, 0e+00]
  RHS range        [2e-05, 3e+08]
Warning: Model contains large matrix coefficient range
         Consider reformulating model or setting NumericFocus parameter
         to avoid numerical issues.

Concurrent LP optimizer: primal simplex, dual simplex, and barrier
Showing barrier log only...

Presolve removed 1129315 rows and 656241 columns
Presolve time: 3.47s
Presolved: 254835 rows, 342440 columns, 891938 nonzeros

Ordering time: 0.13s

Barrier statistics:
 Dense cols : 9
 AA' NZ     : 8.194e+05
 Factor NZ  : 4.461e+06 (roughly 300 MBytes of memory)
 Factor Ops : 1.125e+08 (less than 1 second per iteration)
 Threads    : 30

                  Objective                Residual
Iter       Primal          Dual         Primal    Dual     Compl     Time
   0  -1.93474592e+16 -1.58516051e+15  5.80e+06 1.56e+04  2.32e+12     4s
   1  -2.97201053e+15 -1.58855352e+15  8.83e+05 4.70e+06  7.65e+11     5s
   2  -1.25596266e+15 -1.27887122e+15  3.71e+05 8.32e+05  2.14e+11     5s
   3  -4.54107602e+14 -1.03391750e+15  1.31e+05 2.40e+05  7.22e+10     5s
   4  -1.06883136e+14 -6.37687723e+14  2.84e+04 5.84e+04  1.67e+10     6s
   5  -3.45870593e+13 -4.32170593e+14  9.20e+03 2.94e+04  7.01e+09     6s
   6  -1.63062161e+13 -2.50222987e+14  4.56e+03 9.52e+03  2.79e+09     6s
   7  -6.49378351e+12 -1.42991340e+14  1.95e+03 1.87e+03  8.91e+08     6s
   8  -1.08902712e+12 -6.43987537e+13  4.62e+02 2.50e+02  1.95e+08     6s
   9   5.29481251e+11 -8.00284630e+12  2.00e+00 2.42e+00  1.27e+07     7s
  10   1.52507628e+11 -1.27611809e+12  1.57e-01 2.51e-01  2.08e+06     7s
  11   5.60551309e+10 -4.26985588e+11  3.96e-02 1.37e-08  7.00e+05     8s
  12   2.36160341e+10 -1.69844452e+11  1.26e-02 1.12e-08  2.80e+05     8s
  13   1.54048300e+10 -8.00756266e+10  6.54e-03 1.12e-08  1.38e+05     8s
  14   1.55229703e+10 -6.03214456e+10  5.91e-03 1.12e-08  1.10e+05     8s
  15   1.18223271e+10 -2.81735995e+10  3.66e-03 1.12e-08  5.79e+04     9s
  16   8.79097774e+09 -7.88808156e+09  1.21e-03 1.12e-08  2.41e+04     9s
  17   7.58650883e+09 -1.34154998e+09  5.79e-04 7.45e-09  1.29e+04     9s
  18   7.35947274e+09  1.87839166e+09  4.80e-04 5.59e-09  7.92e+03     9s
  19   7.12979287e+09  2.83153188e+09  3.82e-04 5.59e-09  6.21e+03    10s
  20   7.03435865e+09  3.26032723e+09  3.41e-04 3.73e-09  5.45e+03    10s
  21   7.01229642e+09  3.91200835e+09  3.32e-04 3.73e-09  4.48e+03    10s
  22   6.76131021e+09  4.14713313e+09  2.31e-04 3.73e-09  3.78e+03    11s
  23   6.60912140e+09  4.63157918e+09  1.72e-04 3.73e-09  2.86e+03    11s
  24   6.49686064e+09  4.76941371e+09  1.26e-04 3.73e-09  2.50e+03    11s
  25   6.43624393e+09  4.94838423e+09  1.02e-04 2.79e-09  2.15e+03    12s
  26   6.31045455e+09  5.56285595e+09  5.62e-05 1.86e-09  1.08e+03    12s
  27   6.24382657e+09  5.71905421e+09  3.34e-05 1.86e-09  7.58e+02    13s
  28   6.22548944e+09  5.78301106e+09  2.76e-05 1.86e-09  6.39e+02    13s
  29   6.20772930e+09  5.81866089e+09  2.20e-05 2.79e-09  5.62e+02    13s
  30   6.20478626e+09  5.85024992e+09  2.12e-05 1.86e-09  5.12e+02    13s
  31   6.19311769e+09  5.88492346e+09  1.76e-05 2.79e-09  4.45e+02    14s
  32   6.16761201e+09  5.90648787e+09  9.94e-06 2.79e-09  3.77e+02    14s
  33   6.15198783e+09  5.95528757e+09  5.41e-06 1.86e-09  2.84e+02    15s
  34   6.14903506e+09  5.98248843e+09  4.61e-06 2.79e-09  2.40e+02    15s
  35   6.14334245e+09  6.00631257e+09  3.08e-06 1.86e-09  1.98e+02    15s
  36   6.14082686e+09  6.03513082e+09  2.44e-06 1.86e-09  1.53e+02    16s
  37   6.13853965e+09  6.06060863e+09  1.88e-06 1.86e-09  1.13e+02    16s
  38   6.13687137e+09  6.09026277e+09  1.47e-06 1.86e-09  6.73e+01    16s
  39   6.13550844e+09  6.09262485e+09  1.17e-06 1.86e-09  6.19e+01    17s
  40   6.13304263e+09  6.10466507e+09  6.08e-07 1.86e-09  4.10e+01    17s
  41   6.13165481e+09  6.11709847e+09  2.86e-07 1.86e-09  2.10e+01    18s
  42   6.13115502e+09  6.12293055e+09  1.82e-07 1.86e-09  1.19e+01    18s
  43   6.13102663e+09  6.12391539e+09  1.62e-07 1.86e-09  1.03e+01    18s
  44   6.13080554e+09  6.12437369e+09  1.24e-07 1.86e-09  9.28e+00    19s
  45   6.13056897e+09  6.12547210e+09  8.15e-08 1.86e-09  7.36e+00    19s
  46   6.13037446e+09  6.12670609e+09  4.85e-08 1.86e-09  5.30e+00    19s
  47   6.13022552e+09  6.12882286e+09  4.15e-07 1.86e-09  2.02e+00    19s
  48   6.13012659e+09  6.12971887e+09  1.01e-06 2.79e-09  5.89e-01    20s
  49   6.13010678e+09  6.12988637e+09  8.53e-07 1.86e-09  3.18e-01    20s
  50   6.13005991e+09  6.12994395e+09  4.79e-07 1.86e-09  1.67e-01    21s
  51   6.13004736e+09  6.12996313e+09  3.83e-07 1.86e-09  1.22e-01    21s
  52   6.13002753e+09  6.12997451e+09  2.29e-07 1.86e-09  7.66e-02    21s
  53   6.13000513e+09  6.12999179e+09  5.75e-08 1.86e-09  1.93e-02    22s
  54   6.13000021e+09  6.12999688e+09  2.16e-08 2.88e-09  4.81e-03    22s
  55   6.12999733e+09  6.12999714e+09  1.72e-06 2.79e-09  2.75e-04    22s
  56   6.12999733e+09  6.12999714e+09  2.33e-04 3.54e-09  2.75e-04    23s

Barrier solved model in 56 iterations and 22.78 seconds
Optimal objective 6.12999733e+09

Crossover log...

   74416 DPushes remaining with DInf 0.0000000e+00                23s
    1410 DPushes remaining with DInf 0.0000000e+00                25s
       0 DPushes remaining with DInf 0.0000000e+00                26s
Warning: Markowitz tolerance tightened to 0.5

  166898 PPushes remaining with PInf 3.3509657e-04                26s
   60220 PPushes remaining with PInf 3.1313637e-03                43s
   44912 PPushes remaining with PInf 4.1721088e-02                45s
   11371 PPushes remaining with PInf 6.9281577e-02                75s
   10632 PPushes remaining with PInf 7.7877021e-02                76s
       0 PPushes remaining with PInf 0.0000000e+00               101s

  Push phase complete: Pinf 0.0000000e+00, Dinf 1.5371191e+05    101s

Iteration    Objective       Primal Inf.    Dual Inf.      Time
  191751    6.1299972e+09   0.000000e+00   1.537119e+05    101s
  194624    6.1299972e+09   0.000000e+00   0.000000e+00    107s

Solved with barrier
Solved in 194624 iterations and 107.14 seconds
Optimal objective  6.129997198e+09
Warning: unscaled primal violation = 0.000857461 and residual = 0.000857461
